543 5
10 10 10 10 10 

0 0 0 0 0 0 5 2 14 26 38 50 
0 0 0 0 0 0 1 3 
9 0 0 2 0 0 2 6 4 
5 0 0 6 0 0 1 5 
3 0 0 6 0 0 2 10 7 
4 0 0 3 0 0 2 11 7 
10 0 0 4 0 0 2 8 418 
4 0 0 4 0 0 1 9 
3 0 0 10 0 0 1 12 
3 0 0 2 0 0 1 12 
1 0 0 7 0 0 1 12 
5 0 0 6 0 0 1 13 
0 0 0 0 0 0 1 62 
0 0 0 0 0 0 1 15 
9 0 0 0 1 0 3 17 16 184 
8 0 0 0 5 0 2 24 18 
1 0 0 0 5 0 2 23 19 
4 0 0 0 6 0 1 19 
5 0 0 0 8 0 1 20 
9 0 0 0 8 0 1 21 
5 0 0 0 6 0 1 22 
7 0 0 0 2 0 1 25 
4 0 0 0 3 0 1 25 
9 0 0 0 6 0 1 25 
0 0 0 0 0 0 1 62 
0 0 0 0 0 0 2 27 29 
5 0 0 0 1 0 1 28 
4 0 0 0 6 0 2 32 30 
8 0 0 0 4 0 3 32 30 366 
8 0 0 0 4 0 1 31 
1 0 0 0 5 0 1 33 
5 0 0 0 4 0 1 33 
5 0 0 0 7 0 1 34 
3 0 0 0 6 0 2 36 35 
2 0 0 0 6 0 1 37 
7 0 0 0 7 0 1 37 
0 0 0 0 0 0 1 62 
0 0 0 0 0 0 2 39 41 
5 0 1 0 0 0 1 40 
7 0 7 0 0 0 1 42 
9 0 2 0 0 0 1 42 
3 0 6 0 0 0 2 44 43 
1 0 5 0 0 0 1 45 
5 0 5 0 0 0 1 45 
9 0 6 0 0 0 2 47 46 
7 0 8 0 0 0 1 48 
6 0 6 0 0 0 2 48 472 
1 0 4 0 0 0 1 49 
0 0 0 0 0 0 1 62 
0 0 0 0 0 0 2 51 52 
9 0 0 0 0 1 2 55 53 
1 0 0 0 0 4 2 59 55 
8 0 0 0 0 5 1 54 
8 0 0 0 0 9 2 59 56 
7 0 0 0 0 6 1 56 
10 0 0 0 0 6 1 57 
1 0 0 0 0 3 1 58 
8 0 0 0 0 5 1 60 
4 0 0 0 0 8 2 60 334 
8 0 0 0 0 3 1 61 
0 0 0 0 0 0 1 62 
0 0 0 0 0 0 5 63 105 147 159 201 
0 0 0 0 0 0 3 64 71 74 
1 1 0 1 1 1 1 65 
4 5 0 10 4 5 1 66 
10 9 0 3 7 3 1 67 
7 8 0 4 5 2 1 68 
8 5 0 8 6 6 1 69 
4 3 0 4 7 2 2 77 70 
4 7 0 5 5 3 1 72 
9 5 0 3 1 6 1 72 
10 8 0 6 3 9 1 73 
9 3 0 7 3 8 1 75 
9 7 0 7 6 3 1 75 
5 6 0 5 9 4 1 76 
1 4 0 5 7 7 1 78 
9 5 0 3 6 4 1 78 
7 6 0 3 2 6 1 79 
5 5 0 6 3 2 2 87 80 
6 5 0 6 8 5 3 93 81 448 
10 6 0 5 5 2 2 102 82 
6 1 0 3 7 3 1 83 
9 4 0 7 3 7 1 84 
2 3 0 5 7 9 1 85 
9 10 0 6 6 6 2 99 86 
3 4 0 5 6 9 3 101 100 88 
9 3 0 3 4 9 3 103 99 90 
4 4 0 5 5 5 1 89 
5 5 0 8 9 3 1 90 
9 6 0 8 6 4 1 91 
7 3 0 4 7 4 1 92 
9 8 0 5 7 4 1 94 
4 3 0 7 3 5 1 94 
5 4 0 5 5 9 1 95 
3 3 0 3 3 4 1 96 
10 4 0 7 3 5 1 97 
6 6 0 4 1 3 1 98 
6 6 0 6 4 6 1 104 
6 5 0 2 5 4 1 104 
9 7 0 4 7 8 1 104 
1 3 0 3 7 4 1 104 
7 4 0 4 4 5 1 104 
10 6 0 5 3 6 1 104 
0 0 0 0 0 0 1 543 
0 0 0 0 0 0 3 106 119 134 
2 1 1 0 1 3 1 107 
1 3 4 0 7 4 1 108 
2 4 8 0 8 2 1 109 
2 5 6 0 4 6 1 110 
4 8 5 0 2 8 2 127 111 
3 7 4 0 4 5 1 112 
6 5 4 0 4 3 1 113 
1 7 6 0 8 4 1 114 
1 5 9 0 2 7 2 145 115 
10 3 3 0 7 3 1 116 
4 5 1 0 4 7 1 117 
9 3 5 0 7 6 1 118 
1 5 4 0 3 7 2 144 120 
1 2 3 0 5 10 1 120 
9 6 10 0 4 2 3 143 142 121 
8 3 6 0 3 6 1 122 
8 5 10 0 7 6 1 123 
2 3 4 0 5 6 1 124 
7 8 4 0 3 1 2 125 203 
8 3 4 0 4 4 2 141 126 
8 5 9 0 8 6 3 140 139 128 
5 6 9 0 4 4 2 139 129 
3 5 5 0 5 3 1 129 
2 5 8 0 3 5 1 130 
9 6 4 0 5 9 1 131 
4 6 5 0 3 2 1 132 
4 8 5 0 9 10 1 133 
3 5 2 0 5 4 1 135 
4 4 8 0 4 3 1 135 
8 3 6 0 4 4 1 136 
2 6 3 0 6 4 1 137 
3 4 4 0 5 4 1 138 
8 8 2 0 3 6 1 146 
6 5 4 0 6 7 1 146 
10 4 3 0 3 3 1 146 
2 3 9 0 7 4 1 146 
1 4 3 0 9 5 1 146 
8 6 2 0 6 4 1 146 
3 9 5 0 5 7 1 146 
1 7 3 0 8 6 1 146 
0 0 0 0 0 0 1 543 
0 0 0 0 0 0 2 148 150 
5 0 0 0 0 1 2 152 149 
10 0 0 0 0 6 1 151 
1 0 0 0 0 6 1 151 
10 0 0 0 0 4 3 156 153 269 
7 0 0 0 0 5 2 156 153 
2 0 0 0 0 4 1 154 
6 0 0 0 0 10 1 155 
1 0 0 0 0 4 1 157 
7 0 0 0 0 6 1 157 
3 0 0 0 0 4 1 158 
0 0 0 0 0 0 5 243 275 307 319 351 
0 0 0 0 0 0 3 160 168 173 
9 1 1 0 4 1 1 161 
1 7 3 0 5 4 1 162 
5 4 6 0 2 4 1 163 
3 4 5 0 4 5 1 164 
6 6 4 0 7 3 2 172 165 
4 2 5 0 3 4 1 166 
8 4 5 0 3 5 1 167 
7 10 7 0 7 5 1 169 
5 7 8 0 7 5 1 169 
2 3 7 0 5 10 1 170 
8 4 4 0 6 5 1 171 
9 5 6 0 2 3 1 174 
5 1 3 0 2 5 1 174 
8 5 3 0 9 3 1 174 
4 2 7 0 3 4 1 175 
1 5 5 0 5 7 3 199 184 176 
9 3 1 0 5 4 2 189 177 
5 8 4 0 3 7 2 198 178 
9 7 3 0 5 6 1 179 
9 7 8 0 5 4 1 180 
9 5 5 0 3 5 1 181 
9 5 4 0 4 6 2 195 182 
6 3 3 0 6 4 4 197 196 183 539 
3 4 6 0 3 4 1 185 
4 3 4 0 8 6 2 195 187 
3 8 7 0 5 7 1 186 
3 6 9 0 6 8 1 187 
6 8 7 0 10 4 1 188 
8 5 5 0 4 7 1 190 
8 8 5 0 6 5 1 190 
7 7 5 0 5 2 1 191 
9 2 3 0 5 7 1 192 
7 6 6 0 7 4 1 193 
3 4 6 0 7 2 1 194 
9 6 4 0 3 6 1 200 
3 7 7 0 6 2 1 200 
3 7 5 0 5 7 1 200 
10 5 6 0 5 7 1 200 
3 4 4 0 5 6 1 200 
2 2 4 0 5 7 1 200 
0 0 0 0 0 0 1 543 
0 0 0 0 0 0 3 202 222 241 
7 2 1 2 1 0 1 203 
10 6 8 4 3 0 1 204 
1 7 5 2 7 0 2 205 520 
9 4 7 6 5 0 1 206 
2 7 6 4 7 0 2 230 207 
9 4 4 5 9 0 1 208 
8 3 3 5 5 0 1 209 
3 6 8 5 2 0 1 210 
4 6 8 6 6 0 2 240 211 
8 2 6 7 5 0 1 212 
9 7 2 3 6 0 1 213 
3 6 5 3 5 0 1 214 
2 5 5 7 5 0 2 239 215 
2 2 6 5 6 0 3 238 237 216 
3 10 5 3 2 0 1 217 
5 2 3 6 5 0 1 218 
2 7 4 10 6 0 1 219 
2 5 7 6 5 0 1 220 
5 4 6 5 2 0 2 236 221 
5 5 2 7 4 0 3 235 234 223 
4 5 2 9 7 0 1 223 
5 6 8 4 6 0 1 224 
3 3 6 8 10 0 1 225 
1 7 4 3 9 0 1 226 
7 6 6 6 4 0 1 227 
8 6 4 1 4 0 1 228 
1 3 5 7 8 0 1 229 
1 7 5 3 2 0 1 231 
8 3 6 7 3 0 1 231 
6 5 6 6 7 0 1 232 
2 3 5 4 5 0 1 233 
3 8 4 2 6 0 1 242 
4 4 3 3 3 0 1 242 
8 6 2 4 6 0 1 242 
8 10 2 4 6 0 1 242 
2 2 4 10 7 0 1 242 
5 5 7 6 3 0 1 242 
3 2 9 2 1 0 1 242 
6 5 7 4 3 0 1 242 
1 4 4 6 4 0 1 242 
0 0 0 0 0 0 1 543 
0 0 0 0 0 0 3 244 273 532 
1 0 3 1 1 0 1 245 
1 0 3 6 3 0 1 246 
2 0 4 2 2 0 1 247 
8 0 5 7 8 0 1 248 
5 0 4 4 4 0 2 270 249 
3 0 1 8 6 0 1 250 
3 0 3 10 3 0 1 251 
7 0 8 5 4 0 3 262 254 252 
1 0 9 8 7 0 2 256 253 
5 0 8 5 1 0 3 260 258 255 
9 0 10 8 7 0 2 260 259 
5 0 4 4 7 0 1 257 
10 0 4 4 7 0 1 257 
5 0 7 5 2 0 1 259 
4 0 2 6 6 0 1 259 
7 0 3 4 5 0 1 261 
10 0 6 5 5 0 1 261 
5 0 8 6 4 0 1 263 
4 0 6 4 4 0 1 263 
10 0 6 3 8 0 2 272 264 
10 0 4 3 5 0 1 265 
5 0 4 5 3 0 1 266 
5 0 6 4 5 0 1 267 
4 0 3 6 5 0 1 268 
9 0 3 6 5 0 1 269 
9 0 5 3 7 0 1 271 
7 0 7 4 4 0 1 271 
7 0 4 4 6 0 1 274 
10 0 2 3 9 0 1 274 
5 0 8 7 7 0 1 274 
0 0 0 0 0 0 1 543 
0 0 0 0 0 0 2 276 279 
2 1 0 2 0 1 1 277 
4 5 0 8 0 7 1 278 
4 4 0 6 0 4 1 280 
3 9 0 6 0 3 1 280 
7 4 0 5 0 8 1 281 
6 3 0 4 0 4 2 285 282 
10 4 0 7 0 9 1 283 
9 1 0 3 0 6 1 284 
1 2 0 3 0 4 3 289 287 286 
4 2 0 4 0 7 1 286 
10 4 0 7 0 6 2 290 288 
1 7 0 2 0 4 2 294 290 
2 8 0 3 0 4 3 294 292 291 
5 7 0 5 0 2 3 294 292 291 
2 7 0 4 0 7 2 292 291 
1 6 0 6 0 4 1 293 
2 7 0 5 0 5 1 293 
2 7 0 2 0 8 1 295 
9 4 0 3 0 6 1 295 
7 7 0 6 0 4 1 296 
4 6 0 2 0 3 1 297 
9 2 0 6 0 5 2 300 298 
6 6 0 10 0 8 1 299 
3 3 0 5 0 5 1 301 
4 8 0 3 0 3 2 301 441 
10 2 0 6 0 6 1 302 
5 9 0 5 0 7 1 303 
10 9 0 10 0 1 1 304 
6 4 0 7 0 3 1 305 
8 2 0 5 0 6 1 306 
0 0 0 0 0 0 1 543 
0 0 0 0 0 0 1 308 
10 0 0 0 0 1 2 312 309 
10 0 0 0 0 4 1 310 
6 0 0 0 0 5 1 311 
4 0 0 0 0 3 2 316 313 
10 0 0 0 0 6 2 317 314 
4 0 0 0 0 8 2 314 497 
1 0 0 0 0 5 1 315 
9 0 0 0 0 4 1 318 
10 0 0 0 0 6 1 318 
2 0 0 0 0 8 1 318 
0 0 0 0 0 0 5 383 395 417 439 461 
0 0 0 0 0 0 2 320 349 
1 1 1 1 0 0 1 321 
8 4 3 5 0 0 1 322 
4 7 7 7 0 0 1 323 
6 2 4 4 0 0 1 324 
3 6 6 6 0 0 2 348 325 
6 3 7 4 0 0 1 326 
7 7 4 5 0 0 1 327 
5 8 6 2 0 0 5 347 346 340 333 328 
9 5 7 9 0 0 1 329 
8 5 8 5 0 0 2 335 330 
10 4 2 9 0 0 1 331 
2 3 4 4 0 0 1 332 
6 4 4 7 0 0 1 334 
5 6 7 6 0 0 1 335 
7 7 3 4 0 0 1 336 
5 5 3 7 0 0 1 336 
10 2 4 6 0 0 2 345 337 
4 6 1 5 0 0 2 338 400 
6 4 5 6 0 0 1 339 
2 6 9 5 0 0 1 341 
4 5 2 2 0 0 1 341 
3 7 6 5 0 0 1 342 
5 3 8 5 0 0 1 343 
4 4 8 6 0 0 1 344 
8 4 6 2 0 0 1 350 
10 6 5 5 0 0 1 350 
10 8 5 3 0 0 1 350 
8 6 3 5 0 0 1 350 
10 4 5 5 0 0 1 350 
1 8 7 5 0 0 1 350 
0 0 0 0 0 0 1 543 
0 0 0 0 0 0 2 352 381 
8 0 0 2 2 1 1 353 
9 0 0 5 3 3 2 380 354 
5 0 0 6 9 5 2 379 355 
3 0 0 4 2 5 1 356 
10 0 0 5 4 6 3 378 377 357 
10 0 0 8 7 3 3 376 375 358 
1 0 0 2 9 5 1 359 
5 0 0 8 3 5 1 360 
3 0 0 2 9 8 1 361 
9 0 0 8 2 5 1 362 
4 0 0 7 3 5 1 363 
1 0 0 9 5 5 2 374 364 
1 0 0 7 4 3 1 365 
4 0 0 10 6 6 1 366 
10 0 0 6 7 2 1 367 
6 0 0 5 5 4 1 368 
1 0 0 3 3 7 1 369 
6 0 0 4 3 8 1 370 
7 0 0 2 6 9 1 371 
6 0 0 3 5 6 1 372 
2 0 0 3 10 4 1 373 
3 0 0 5 4 4 1 382 
9 0 0 5 8 10 1 382 
5 0 0 6 3 3 2 382 436 
10 0 0 4 4 3 1 382 
1 0 0 1 6 6 1 382 
3 0 0 3 3 2 1 382 
7 0 0 3 5 4 1 382 
1 0 0 7 7 7 1 382 
7 0 0 7 3 6 1 382 
0 0 0 0 0 0 1 543 
0 0 0 0 0 0 1 384 
6 0 0 0 0 1 3 389 385 428 
10 0 0 0 0 4 1 386 
3 0 0 0 0 7 2 393 387 
5 0 0 0 0 7 1 388 
6 0 0 0 0 6 2 391 390 
3 0 0 0 0 3 2 391 390 
2 0 0 0 0 6 1 392 
10 0 0 0 0 7 1 392 
9 0 0 0 0 6 1 394 
9 0 0 0 0 3 1 394 
0 0 0 0 0 0 5 483 495 507 519 531 
0 0 0 0 0 0 3 396 410 415 
10 0 1 0 1 0 2 414 397 
1 0 4 0 8 0 1 398 
2 0 5 0 3 0 1 399 
8 0 4 0 5 0 1 400 
4 0 7 0 3 0 1 401 
7 0 5 0 8 0 1 402 
8 0 5 0 5 0 2 413 403 
1 0 4 0 4 0 1 404 
9 0 7 0 8 0 1 405 
3 0 4 0 4 0 2 412 406 
2 0 4 0 8 0 1 407 
6 0 5 0 5 0 2 408 425 
4 0 6 0 6 0 1 409 
10 0 6 0 4 0 1 411 
10 0 7 0 4 0 1 411 
2 0 6 0 3 0 1 416 
8 0 3 0 8 0 1 416 
7 0 5 0 4 0 1 416 
2 0 7 0 3 0 1 416 
4 0 5 0 6 0 1 416 
0 0 0 0 0 0 1 543 
0 0 0 0 0 0 3 418 420 424 
8 4 0 1 0 0 1 419 
4 3 0 5 0 0 1 421 
1 4 0 4 0 0 2 425 423 
6 5 0 8 0 0 1 422 
10 3 0 5 0 0 1 423 
3 6 0 7 0 0 2 430 426 
2 3 0 3 0 0 2 430 426 
2 10 0 5 0 0 2 430 428 
7 7 0 6 0 0 1 427 
6 8 0 4 0 0 1 428 
5 6 0 3 0 0 1 429 
2 5 0 5 0 0 2 437 431 
3 5 0 3 0 0 2 437 431 
8 7 0 6 0 0 1 432 
10 4 0 6 0 0 1 433 
10 3 0 6 0 0 2 434 471 
3 5 0 5 0 0 1 435 
5 3 0 4 0 0 1 436 
2 5 0 5 0 0 1 438 
5 4 0 9 0 0 1 438 
0 0 0 0 0 0 1 543 
0 0 0 0 0 0 3 440 455 459 
10 0 0 1 0 1 2 450 441 
7 0 0 8 0 6 2 458 442 
10 0 0 3 0 3 1 443 
10 0 0 3 0 7 1 444 
4 0 0 4 0 8 1 445 
5 0 0 8 0 5 2 457 446 
1 0 0 4 0 5 1 447 
8 0 0 7 0 5 1 448 
4 0 0 4 0 6 1 449 
4 0 0 7 0 4 1 451 
10 0 0 2 0 7 1 451 
10 0 0 3 0 3 1 452 
6 0 0 3 0 3 1 453 
8 0 0 5 0 3 1 454 
2 0 0 7 0 4 1 456 
3 0 0 4 0 7 1 456 
6 0 0 7 0 4 1 460 
10 0 0 7 0 7 1 460 
1 0 0 5 0 7 1 460 
3 0 0 8 0 5 1 460 
0 0 0 0 0 0 1 543 
0 0 0 0 0 0 3 462 480 481 
9 1 0 1 0 0 2 479 463 
8 3 0 5 0 0 1 464 
4 2 0 7 0 0 1 465 
8 7 0 3 0 0 2 478 466 
4 3 0 3 0 0 1 467 
10 10 0 5 0 0 2 474 468 
4 6 0 3 0 0 1 469 
4 5 0 7 0 0 1 470 
7 6 0 4 0 0 1 471 
4 6 0 5 0 0 1 472 
3 7 0 6 0 0 1 473 
4 5 0 5 0 0 1 475 
10 6 0 5 0 0 1 475 
8 6 0 5 0 0 1 476 
8 2 0 7 0 0 1 477 
2 2 0 6 0 0 1 482 
7 8 0 7 0 0 1 482 
2 6 0 5 0 0 1 482 
9 5 0 4 0 0 1 482 
7 4 0 7 0 0 1 482 
0 0 0 0 0 0 1 543 
0 0 0 0 0 0 1 484 
7 0 0 0 1 0 2 486 485 
10 0 0 0 7 0 3 493 491 488 
9 0 0 0 3 0 1 487 
10 0 0 0 6 0 2 493 488 
4 0 0 0 6 0 1 489 
7 0 0 0 6 0 1 490 
4 0 0 0 5 0 1 492 
10 0 0 0 6 0 1 492 
9 0 0 0 4 0 1 494 
3 0 0 0 6 0 1 494 
0 0 0 0 0 0 1 543 
0 0 0 0 0 0 1 496 
6 0 0 0 0 1 1 497 
4 0 0 0 0 4 2 505 498 
3 0 0 0 0 8 2 504 499 
2 0 0 0 0 6 2 502 500 
2 0 0 0 0 7 1 501 
3 0 0 0 0 3 1 503 
3 0 0 0 0 8 1 503 
2 0 0 0 0 4 1 506 
5 0 0 0 0 6 1 506 
10 0 0 0 0 3 1 506 
0 0 0 0 0 0 1 543 
0 0 0 0 0 0 1 508 
1 1 0 0 0 0 1 509 
5 5 0 0 0 0 1 510 
7 5 0 0 0 0 2 513 511 
5 6 0 0 0 0 1 512 
6 8 0 0 0 0 2 515 514 
3 6 0 0 0 0 2 515 514 
7 5 0 0 0 0 2 517 516 
10 5 0 0 0 0 1 516 
8 5 0 0 0 0 1 518 
4 4 0 0 0 0 1 518 
0 0 0 0 0 0 1 543 
0 0 0 0 0 0 1 520 
1 1 0 0 0 0 2 525 521 
10 6 0 0 0 0 1 522 
7 6 0 0 0 0 3 529 528 523 
8 5 0 0 0 0 1 524 
2 6 0 0 0 0 1 526 
8 6 0 0 0 0 1 526 
5 6 0 0 0 0 1 527 
3 3 0 0 0 0 1 530 
6 6 0 0 0 0 1 530 
4 5 0 0 0 0 1 530 
0 0 0 0 0 0 1 543 
0 0 0 0 0 0 2 532 535 
7 0 0 2 0 0 1 533 
4 0 0 3 0 0 1 534 
8 0 0 8 0 0 2 537 536 
3 0 0 4 0 0 1 536 
10 0 0 10 0 0 1 538 
3 0 0 6 0 0 1 539 
5 0 0 2 0 0 1 540 
6 0 0 8 0 0 1 540 
5 0 0 5 0 0 1 541 
5 0 0 2 0 0 1 542 
0 0 0 0 0 0 1 543 
0 0 0 0 0 0 0 
